DIMENSION: 96
80
79
1
30
31
39
41
51
55
52
53
50
49
43
42
40
44
45
46
47
48
11
33
34
35
38
37
36
32
29
2
3
4
5
6
8
7
9
10
12
13
14
15
16
17
20
18
19
21
25
24
23
22
26
27
28
65
64
63
62
60
54
58
57
56
59
61
66
68
67
96
94
95
93
92
76
71
72
73
75
77
78
85
74
84
86
88
87
89
90
91
83
82
81
70
69
